instances/knapsack/discrete/knapsack_80_11.kp
80889
80
394

9 0.9 82
90 9.0 6
48 4.8 100
69 6.9 36
42 4.2 17
87 8.7 29
15 1.5 89
25 2.5 31
71 7.1 66
84 8.4 98
25 2.5 99
85 8.5 23
90 9.0 15
10 1.0 2
30 3.0 83
66 6.6 92
75 7.5 42
58 5.8 54
39 3.9 14
24 2.4 45
31 3.1 65
97 9.7 91
2 0.2 48
68 6.8 40
6 0.6 41
70 7.0 42
88 8.8 100
13 1.3 27
7 0.7 38
33 3.3 92
35 3.5 41
17 1.7 76
49 4.9 4
47 4.7 91
14 1.4 35
87 8.7 57
74 7.4 61
46 4.6 15
98 9.8 98
68 6.8 3
53 5.3 56
23 2.3 1
88 8.8 45
31 3.1 27
29 2.9 34
96 9.6 35
95 9.5 40
95 9.5 32
33 3.3 80
70 7.0 93
80 8.0 87
94 9.4 98
55 5.5 15
18 1.8 73
6 0.6 16
29 2.9 70
39 3.9 14
88 8.8 48
46 4.6 88
80 8.0 99
50 5.0 20
28 2.8 14
45 4.5 5
64 6.4 61
77 7.7 46
26 2.6 41
74 7.4 81
32 3.2 93
6 0.6 64
59 5.9 81
67 6.7 45
79 7.9 91
4 0.4 85
29 2.9 81
13 1.3 54
98 9.8 66
72 7.2 6
37 3.7 25
66 6.6 40
72 7.2 63

28318
386

[0.57 4.54 3.24 3.62 2.66 0.11 1.53 2.71 2.7 2.63 2.15 0.16 0.02 4.49 3.71 2.05 2.81 3.92 0.38 2.7 0.23 0.69 1.49 2.93 2.44 1.58 2.5 1.02 2.43 4.24 1.52 0.27 0.05 3.2 4.28 4.43 4.37 1.79 0.39 0.41 2.77 4.81 1.38 0.28 3.95 3.01 3.44 3.25 4.78 2.24 0.84 0.99 0.32 1.8 1.78 2.84 1.36 0.64 3.1 4.54 4.76 3.99 4.76 3.58 3.3 3.88 3.55 2.86 0.11 2.46 4.55 3.53 1.02 4.16 0.32 3.85 4.23 2.45 2.07 3.44]

[46 58 52 73 78 72 43 46 23 64 78 85 54 78 87 91 47 54 3 4 11 14 46 93 43 10 24 18 88 29 28 54 54 3 66 35 78 3 50 85 69 24 44 32 1 9 24 8 69 14 49 58 95 46 87 74 75 65 22 60 43 37 50 65 86 70 95 9 98 80 56 28 36 85 82 3 97 25 31 89]
