instances/knapsack/discrete/knapsack_80_11.lp
\ Model knapsack_80_11
\ LP format - for model browsing. Use MPS format to capture full model detail.
\ Signature: 0xf86d0bbf74a39a5e
Minimize
  - 43 x[0] - 3 x[1] - 77 x[2] - 93 x[3] - 34 x[4] - 66 x[5] - 34 x[6]
   - 88 x[7] - 83 x[8] - 91 x[9] - 76 x[10] - 16 x[11] - 72 x[12]
   - 63 x[13] - 20 x[14] - 81 x[15] - 79 x[16] - 55 x[17] - 63 x[18]
   - 90 x[19] - 94 x[20] - 28 x[21] - 21 x[22] - 29 x[23] - 62 x[24]
   - 63 x[25] - 5 x[26] - 88 x[27] - 63 x[28] - 97 x[29] - 86 x[30]
   - 93 x[31] - 57 x[32] - 52 x[33] - 52 x[34] - 10 x[35] - 38 x[36]
   - 36 x[37] - 3 x[38] - 36 x[39] - 41 x[40] - 94 x[41] - 74 x[42]
   - 24 x[43] - 11 x[44] - 76 x[45] - 57 x[46] - 45 x[47] - 21 x[48]
   - 66 x[49] - 80 x[50] - 39 x[51] - 72 x[52] - 90 x[53] - 21 x[54]
   - 39 x[55] - 99 x[56] - 57 x[57] - 17 x[58] - 96 x[59] - 13 x[60]
   - 15 x[61] - 66 x[62] - 18 x[63] - 31 x[64] - 18 x[65] - 54 x[66]
   - 50 x[67] - 13 x[68] - 14 x[69] - 82 x[70] - 12 x[71] - 34 x[72]
   - 86 x[73] - 39 x[74] - 23 x[75] - 23 x[76] - 90 x[77] - 89 x[78]
   - 20 x[79]
Subject To
 primal_upper: 34 x[0] + 35 x[1] + x[2] + 42 x[3] + 91 x[4] + 28 x[5]
   + 48 x[6] + 26 x[7] + 28 x[8] + 33 x[9] + 66 x[10] + 74 x[11] + 7 x[12]
   + 27 x[13] + 3 x[14] + 95 x[15] + 52 x[16] + 11 x[17] + 20 x[18]
   + 73 x[19] + 96 x[20] + 94 x[21] + 67 x[22] + 65 x[23] + 83 x[24]
   + 87 x[25] + 57 x[26] + 78 x[27] + 12 x[28] + 2 x[29] + 80 x[30]
   + 66 x[31] + 30 x[32] + 28 x[33] + 51 x[34] + 96 x[35] + 47 x[36]
   + 27 x[37] + 27 x[38] + 77 x[39] + 26 x[40] + 68 x[41] + 29 x[42]
   + 88 x[43] + 34 x[44] + 57 x[45] + 24 x[46] + 40 x[47] + 86 x[48]
   + 63 x[49] + x[50] + 11 x[51] + 52 x[52] + 35 x[53] + 23 x[54] + 6 x[55]
   + 24 x[56] + 61 x[57] + 39 x[58] + 33 x[59] + 11 x[60] + 17 x[61]
   + 86 x[62] + 97 x[63] + 54 x[64] + 71 x[65] + 75 x[66] + 29 x[67]
   + 95 x[68] + 32 x[69] + 60 x[70] + 68 x[71] + 81 x[72] + 46 x[73]
   + 82 x[74] + 63 x[75] + 97 x[76] + 78 x[77] + 19 x[78] + 97 x[79]
   + 3.4 r[0] + 3.5 r[1] + 0.1 r[2] + 4.2 r[3] + 9.1 r[4] + 2.8 r[5]
   + 4.8 r[6] + 2.6 r[7] + 2.8 r[8] + 3.3 r[9] + 6.6 r[10] + 7.4 r[11]
   + 0.7 r[12] + 2.7 r[13] + 0.3 r[14] + 9.5 r[15] + 5.2 r[16] + 1.1 r[17]
   + 2 r[18] + 7.3 r[19] + 9.6 r[20] + 9.4 r[21] + 6.7 r[22] + 6.5 r[23]
   + 8.3 r[24] + 8.7 r[25] + 5.7 r[26] + 7.8 r[27] + 1.2 r[28] + 0.2 r[29]
   + 8 r[30] + 6.6 r[31] + 3 r[32] + 2.8 r[33] + 5.1 r[34] + 9.6 r[35]
   + 4.7 r[36] + 2.7 r[37] + 2.7 r[38] + 7.7 r[39] + 2.6 r[40] + 6.8 r[41]
   + 2.9 r[42] + 8.8 r[43] + 3.4 r[44] + 5.7 r[45] + 2.4 r[46] + 4 r[47]
   + 8.6 r[48] + 6.3 r[49] + 0.1 r[50] + 1.1 r[51] + 5.2 r[52] + 3.5 r[53]
   + 2.3 r[54] + 0.6 r[55] + 2.4 r[56] + 6.1 r[57] + 3.9 r[58] + 3.3 r[59]
   + 1.1 r[60] + 1.7 r[61] + 8.6 r[62] + 9.7 r[63] + 5.4 r[64] + 7.1 r[65]
   + 7.5 r[66] + 2.9 r[67] + 9.5 r[68] + 3.2 r[69] + 6 r[70] + 6.8 r[71]
   + 8.1 r[72] + 4.6 r[73] + 8.2 r[74] + 6.3 r[75] + 9.7 r[76] + 7.8 r[77]
   + 1.9 r[78] + 9.7 r[79] <= 383
 primal_lower: 2.369704975336276 x[0] + 2.36842420662623 x[1]
   + 3.991252296657374 x[2] + 2.684161789559255 x[3]
   + 2.199806283645543 x[4] + 1.193829720559674 x[5]
   + 1.073073419253851 x[6] + 2.710444564691031 x[7]
   + 0.0287323833870322 x[8] + 3.007946365216669 x[9]
   + 0.4346238013704631 x[10] + 2.698937899702347 x[11]
   + 3.445364647575664 x[12] + 0.3120987235431373 x[13]
   + 0.841094218929817 x[14] + 1.654821046296104 x[15]
   + 2.806374949738189 x[16] + 4.375274628444058 x[17]
   + 1.481929940671797 x[18] + 0.3188409481615397 x[19]
   + 3.315447512201063 x[20] + 1.359250440555866 x[21]
   + 0.3448702822240636 x[22] + 2.34787304749439 x[23]
   + 2.302655933703073 x[24] + 3.340279447626376 x[25]
   + 3.029724088404706 x[26] + 3.829819362243687 x[27]
   + 3.039086707217832 x[28] + 0.0377572500105744 x[29]
   + 0.5886346625538779 x[30] + 1.976430377372291 x[31]
   + 0.2372504267310599 x[32] + 1.239628045310534 x[33]
   + 3.629978293569923 x[34] + 4.314759053466892 x[35]
   + 1.370703805547042 x[36] + 3.970361582210874 x[37]
   + 3.336385144598946 x[38] + 1.842355845964954 x[39]
   + 3.270184367305835 x[40] + 2.195819428765589 x[41]
   + 0.8785317132291308 x[42] + 4.196716228510179 x[43]
   + 4.144697854999891 x[44] + 3.060712552533152 x[45]
   + 0.339890381819944 x[46] + 0.1996176934637916 x[47]
   + 2.992777618085321 x[48] + 0.6274820111684648 x[49]
   + 0.0834110600905521 x[50] + 2.547120571724137 x[51]
   + 3.54612518006986 x[52] + 2.62445553238731 x[53]
   + 0.9801046340374352 x[54] + 2.463321912713558 x[55]
   + 2.182736634378422 x[56] + 2.466186552216665 x[57]
   + 0.9723234049735126 x[58] + 0.8727325811331142 x[59]
   + 2.182696913792201 x[60] + 0.268030626240617 x[61]
   + 0.2135819849475727 x[62] + 0.4529028092347063 x[63]
   + 4.342091508252716 x[64] + 3.987207574611163 x[65]
   + 3.155037036969252 x[66] + 3.620960204383398 x[67]
   + 0.1245843696057323 x[68] + 4.098804035371926 x[69]
   + 1.78494940506136 x[70] + 0.4648391915120534 x[71]
   + 0.97667733028142 x[72] + 2.611617316457447 x[73]
   + 4.324685464573064 x[74] + 3.538509121427269 x[75]
   + 1.685450907310759 x[76] + 0.5091386122409568 x[77]
   + 1.995815802922814 x[78] + 1.520695452423855 x[79] + 14 u[0] + 27 u[1]
   + 33 u[2] + 58 u[3] + 15 u[4] + 16 u[5] + 28 u[6] + 26 u[7] + 88 u[8]
   + 81 u[9] + 98 u[10] + 10 u[11] + 43 u[12] + 43 u[13] + 35 u[14]
   + 55 u[15] + 68 u[16] + 3 u[17] + 88 u[18] + 13 u[19] + 4 u[20]
   + 78 u[21] + 23 u[22] + 57 u[23] + 11 u[24] + 71 u[25] + 5 u[26]
   + 70 u[27] + 28 u[28] + 78 u[29] + 72 u[30] + 26 u[31] + 22 u[32]
   + 56 u[33] + 83 u[34] + 68 u[35] + 91 u[36] + 19 u[37] + 27 u[38]
   + 73 u[39] + 14 u[40] + 68 u[41] + 69 u[42] + 76 u[43] + 2 u[44]
   + 13 u[45] + 84 u[46] + 96 u[47] + 2 u[48] + 47 u[49] + 13 u[50]
   + 7 u[51] + 8 u[52] + 27 u[53] + 95 u[54] + 42 u[55] + 8 u[56]
   + 37 u[57] + 43 u[58] + 61 u[59] + 99 u[60] + 9 u[61] + 46 u[62] + u[63]
   + 42 u[64] + 71 u[65] + 95 u[66] + 45 u[67] + 83 u[68] + 52 u[69]
   + 56 u[70] + 84 u[71] + 57 u[72] + 10 u[73] + 38 u[74] + 59 u[75]
   + 77 u[76] + 58 u[77] + 43 u[78] + 69 u[79] <= 22019
 mccormick1[0]: - u[0] + r[0] <= 0
 mccormick1[1]: - u[1] + r[1] <= 0
 mccormick1[2]: - u[2] + r[2] <= 0
 mccormick1[3]: - u[3] + r[3] <= 0
 mccormick1[4]: - u[4] + r[4] <= 0
 mccormick1[5]: - u[5] + r[5] <= 0
 mccormick1[6]: - u[6] + r[6] <= 0
 mccormick1[7]: - u[7] + r[7] <= 0
 mccormick1[8]: - u[8] + r[8] <= 0
 mccormick1[9]: - u[9] + r[9] <= 0
 mccormick1[10]: - u[10] + r[10] <= 0
 mccormick1[11]: - u[11] + r[11] <= 0
 mccormick1[12]: - u[12] + r[12] <= 0
 mccormick1[13]: - u[13] + r[13] <= 0
 mccormick1[14]: - u[14] + r[14] <= 0
 mccormick1[15]: - u[15] + r[15] <= 0
 mccormick1[16]: - u[16] + r[16] <= 0
 mccormick1[17]: - u[17] + r[17] <= 0
 mccormick1[18]: - u[18] + r[18] <= 0
 mccormick1[19]: - u[19] + r[19] <= 0
 mccormick1[20]: - u[20] + r[20] <= 0
 mccormick1[21]: - u[21] + r[21] <= 0
 mccormick1[22]: - u[22] + r[22] <= 0
 mccormick1[23]: - u[23] + r[23] <= 0
 mccormick1[24]: - u[24] + r[24] <= 0
 mccormick1[25]: - u[25] + r[25] <= 0
 mccormick1[26]: - u[26] + r[26] <= 0
 mccormick1[27]: - u[27] + r[27] <= 0
 mccormick1[28]: - u[28] + r[28] <= 0
 mccormick1[29]: - u[29] + r[29] <= 0
 mccormick1[30]: - u[30] + r[30] <= 0
 mccormick1[31]: - u[31] + r[31] <= 0
 mccormick1[32]: - u[32] + r[32] <= 0
 mccormick1[33]: - u[33] + r[33] <= 0
 mccormick1[34]: - u[34] + r[34] <= 0
 mccormick1[35]: - u[35] + r[35] <= 0
 mccormick1[36]: - u[36] + r[36] <= 0
 mccormick1[37]: - u[37] + r[37] <= 0
 mccormick1[38]: - u[38] + r[38] <= 0
 mccormick1[39]: - u[39] + r[39] <= 0
 mccormick1[40]: - u[40] + r[40] <= 0
 mccormick1[41]: - u[41] + r[41] <= 0
 mccormick1[42]: - u[42] + r[42] <= 0
 mccormick1[43]: - u[43] + r[43] <= 0
 mccormick1[44]: - u[44] + r[44] <= 0
 mccormick1[45]: - u[45] + r[45] <= 0
 mccormick1[46]: - u[46] + r[46] <= 0
 mccormick1[47]: - u[47] + r[47] <= 0
 mccormick1[48]: - u[48] + r[48] <= 0
 mccormick1[49]: - u[49] + r[49] <= 0
 mccormick1[50]: - u[50] + r[50] <= 0
 mccormick1[51]: - u[51] + r[51] <= 0
 mccormick1[52]: - u[52] + r[52] <= 0
 mccormick1[53]: - u[53] + r[53] <= 0
 mccormick1[54]: - u[54] + r[54] <= 0
 mccormick1[55]: - u[55] + r[55] <= 0
 mccormick1[56]: - u[56] + r[56] <= 0
 mccormick1[57]: - u[57] + r[57] <= 0
 mccormick1[58]: - u[58] + r[58] <= 0
 mccormick1[59]: - u[59] + r[59] <= 0
 mccormick1[60]: - u[60] + r[60] <= 0
 mccormick1[61]: - u[61] + r[61] <= 0
 mccormick1[62]: - u[62] + r[62] <= 0
 mccormick1[63]: - u[63] + r[63] <= 0
 mccormick1[64]: - u[64] + r[64] <= 0
 mccormick1[65]: - u[65] + r[65] <= 0
 mccormick1[66]: - u[66] + r[66] <= 0
 mccormick1[67]: - u[67] + r[67] <= 0
 mccormick1[68]: - u[68] + r[68] <= 0
 mccormick1[69]: - u[69] + r[69] <= 0
 mccormick1[70]: - u[70] + r[70] <= 0
 mccormick1[71]: - u[71] + r[71] <= 0
 mccormick1[72]: - u[72] + r[72] <= 0
 mccormick1[73]: - u[73] + r[73] <= 0
 mccormick1[74]: - u[74] + r[74] <= 0
 mccormick1[75]: - u[75] + r[75] <= 0
 mccormick1[76]: - u[76] + r[76] <= 0
 mccormick1[77]: - u[77] + r[77] <= 0
 mccormick1[78]: - u[78] + r[78] <= 0
 mccormick1[79]: - u[79] + r[79] <= 0
 mccormick2[0]: - x[0] + r[0] <= 0
 mccormick2[1]: - x[1] + r[1] <= 0
 mccormick2[2]: - x[2] + r[2] <= 0
 mccormick2[3]: - x[3] + r[3] <= 0
 mccormick2[4]: - x[4] + r[4] <= 0
 mccormick2[5]: - x[5] + r[5] <= 0
 mccormick2[6]: - x[6] + r[6] <= 0
 mccormick2[7]: - x[7] + r[7] <= 0
 mccormick2[8]: - x[8] + r[8] <= 0
 mccormick2[9]: - x[9] + r[9] <= 0
 mccormick2[10]: - x[10] + r[10] <= 0
 mccormick2[11]: - x[11] + r[11] <= 0
 mccormick2[12]: - x[12] + r[12] <= 0
 mccormick2[13]: - x[13] + r[13] <= 0
 mccormick2[14]: - x[14] + r[14] <= 0
 mccormick2[15]: - x[15] + r[15] <= 0
 mccormick2[16]: - x[16] + r[16] <= 0
 mccormick2[17]: - x[17] + r[17] <= 0
 mccormick2[18]: - x[18] + r[18] <= 0
 mccormick2[19]: - x[19] + r[19] <= 0
 mccormick2[20]: - x[20] + r[20] <= 0
 mccormick2[21]: - x[21] + r[21] <= 0
 mccormick2[22]: - x[22] + r[22] <= 0
 mccormick2[23]: - x[23] + r[23] <= 0
 mccormick2[24]: - x[24] + r[24] <= 0
 mccormick2[25]: - x[25] + r[25] <= 0
 mccormick2[26]: - x[26] + r[26] <= 0
 mccormick2[27]: - x[27] + r[27] <= 0
 mccormick2[28]: - x[28] + r[28] <= 0
 mccormick2[29]: - x[29] + r[29] <= 0
 mccormick2[30]: - x[30] + r[30] <= 0
 mccormick2[31]: - x[31] + r[31] <= 0
 mccormick2[32]: - x[32] + r[32] <= 0
 mccormick2[33]: - x[33] + r[33] <= 0
 mccormick2[34]: - x[34] + r[34] <= 0
 mccormick2[35]: - x[35] + r[35] <= 0
 mccormick2[36]: - x[36] + r[36] <= 0
 mccormick2[37]: - x[37] + r[37] <= 0
 mccormick2[38]: - x[38] + r[38] <= 0
 mccormick2[39]: - x[39] + r[39] <= 0
 mccormick2[40]: - x[40] + r[40] <= 0
 mccormick2[41]: - x[41] + r[41] <= 0
 mccormick2[42]: - x[42] + r[42] <= 0
 mccormick2[43]: - x[43] + r[43] <= 0
 mccormick2[44]: - x[44] + r[44] <= 0
 mccormick2[45]: - x[45] + r[45] <= 0
 mccormick2[46]: - x[46] + r[46] <= 0
 mccormick2[47]: - x[47] + r[47] <= 0
 mccormick2[48]: - x[48] + r[48] <= 0
 mccormick2[49]: - x[49] + r[49] <= 0
 mccormick2[50]: - x[50] + r[50] <= 0
 mccormick2[51]: - x[51] + r[51] <= 0
 mccormick2[52]: - x[52] + r[52] <= 0
 mccormick2[53]: - x[53] + r[53] <= 0
 mccormick2[54]: - x[54] + r[54] <= 0
 mccormick2[55]: - x[55] + r[55] <= 0
 mccormick2[56]: - x[56] + r[56] <= 0
 mccormick2[57]: - x[57] + r[57] <= 0
 mccormick2[58]: - x[58] + r[58] <= 0
 mccormick2[59]: - x[59] + r[59] <= 0
 mccormick2[60]: - x[60] + r[60] <= 0
 mccormick2[61]: - x[61] + r[61] <= 0
 mccormick2[62]: - x[62] + r[62] <= 0
 mccormick2[63]: - x[63] + r[63] <= 0
 mccormick2[64]: - x[64] + r[64] <= 0
 mccormick2[65]: - x[65] + r[65] <= 0
 mccormick2[66]: - x[66] + r[66] <= 0
 mccormick2[67]: - x[67] + r[67] <= 0
 mccormick2[68]: - x[68] + r[68] <= 0
 mccormick2[69]: - x[69] + r[69] <= 0
 mccormick2[70]: - x[70] + r[70] <= 0
 mccormick2[71]: - x[71] + r[71] <= 0
 mccormick2[72]: - x[72] + r[72] <= 0
 mccormick2[73]: - x[73] + r[73] <= 0
 mccormick2[74]: - x[74] + r[74] <= 0
 mccormick2[75]: - x[75] + r[75] <= 0
 mccormick2[76]: - x[76] + r[76] <= 0
 mccormick2[77]: - x[77] + r[77] <= 0
 mccormick2[78]: - x[78] + r[78] <= 0
 mccormick2[79]: - x[79] + r[79] <= 0
 mccormick3[0]: x[0] + u[0] - r[0] <= 1
 mccormick3[1]: x[1] + u[1] - r[1] <= 1
 mccormick3[2]: x[2] + u[2] - r[2] <= 1
 mccormick3[3]: x[3] + u[3] - r[3] <= 1
 mccormick3[4]: x[4] + u[4] - r[4] <= 1
 mccormick3[5]: x[5] + u[5] - r[5] <= 1
 mccormick3[6]: x[6] + u[6] - r[6] <= 1
 mccormick3[7]: x[7] + u[7] - r[7] <= 1
 mccormick3[8]: x[8] + u[8] - r[8] <= 1
 mccormick3[9]: x[9] + u[9] - r[9] <= 1
 mccormick3[10]: x[10] + u[10] - r[10] <= 1
 mccormick3[11]: x[11] + u[11] - r[11] <= 1
 mccormick3[12]: x[12] + u[12] - r[12] <= 1
 mccormick3[13]: x[13] + u[13] - r[13] <= 1
 mccormick3[14]: x[14] + u[14] - r[14] <= 1
 mccormick3[15]: x[15] + u[15] - r[15] <= 1
 mccormick3[16]: x[16] + u[16] - r[16] <= 1
 mccormick3[17]: x[17] + u[17] - r[17] <= 1
 mccormick3[18]: x[18] + u[18] - r[18] <= 1
 mccormick3[19]: x[19] + u[19] - r[19] <= 1
 mccormick3[20]: x[20] + u[20] - r[20] <= 1
 mccormick3[21]: x[21] + u[21] - r[21] <= 1
 mccormick3[22]: x[22] + u[22] - r[22] <= 1
 mccormick3[23]: x[23] + u[23] - r[23] <= 1
 mccormick3[24]: x[24] + u[24] - r[24] <= 1
 mccormick3[25]: x[25] + u[25] - r[25] <= 1
 mccormick3[26]: x[26] + u[26] - r[26] <= 1
 mccormick3[27]: x[27] + u[27] - r[27] <= 1
 mccormick3[28]: x[28] + u[28] - r[28] <= 1
 mccormick3[29]: x[29] + u[29] - r[29] <= 1
 mccormick3[30]: x[30] + u[30] - r[30] <= 1
 mccormick3[31]: x[31] + u[31] - r[31] <= 1
 mccormick3[32]: x[32] + u[32] - r[32] <= 1
 mccormick3[33]: x[33] + u[33] - r[33] <= 1
 mccormick3[34]: x[34] + u[34] - r[34] <= 1
 mccormick3[35]: x[35] + u[35] - r[35] <= 1
 mccormick3[36]: x[36] + u[36] - r[36] <= 1
 mccormick3[37]: x[37] + u[37] - r[37] <= 1
 mccormick3[38]: x[38] + u[38] - r[38] <= 1
 mccormick3[39]: x[39] + u[39] - r[39] <= 1
 mccormick3[40]: x[40] + u[40] - r[40] <= 1
 mccormick3[41]: x[41] + u[41] - r[41] <= 1
 mccormick3[42]: x[42] + u[42] - r[42] <= 1
 mccormick3[43]: x[43] + u[43] - r[43] <= 1
 mccormick3[44]: x[44] + u[44] - r[44] <= 1
 mccormick3[45]: x[45] + u[45] - r[45] <= 1
 mccormick3[46]: x[46] + u[46] - r[46] <= 1
 mccormick3[47]: x[47] + u[47] - r[47] <= 1
 mccormick3[48]: x[48] + u[48] - r[48] <= 1
 mccormick3[49]: x[49] + u[49] - r[49] <= 1
 mccormick3[50]: x[50] + u[50] - r[50] <= 1
 mccormick3[51]: x[51] + u[51] - r[51] <= 1
 mccormick3[52]: x[52] + u[52] - r[52] <= 1
 mccormick3[53]: x[53] + u[53] - r[53] <= 1
 mccormick3[54]: x[54] + u[54] - r[54] <= 1
 mccormick3[55]: x[55] + u[55] - r[55] <= 1
 mccormick3[56]: x[56] + u[56] - r[56] <= 1
 mccormick3[57]: x[57] + u[57] - r[57] <= 1
 mccormick3[58]: x[58] + u[58] - r[58] <= 1
 mccormick3[59]: x[59] + u[59] - r[59] <= 1
 mccormick3[60]: x[60] + u[60] - r[60] <= 1
 mccormick3[61]: x[61] + u[61] - r[61] <= 1
 mccormick3[62]: x[62] + u[62] - r[62] <= 1
 mccormick3[63]: x[63] + u[63] - r[63] <= 1
 mccormick3[64]: x[64] + u[64] - r[64] <= 1
 mccormick3[65]: x[65] + u[65] - r[65] <= 1
 mccormick3[66]: x[66] + u[66] - r[66] <= 1
 mccormick3[67]: x[67] + u[67] - r[67] <= 1
 mccormick3[68]: x[68] + u[68] - r[68] <= 1
 mccormick3[69]: x[69] + u[69] - r[69] <= 1
 mccormick3[70]: x[70] + u[70] - r[70] <= 1
 mccormick3[71]: x[71] + u[71] - r[71] <= 1
 mccormick3[72]: x[72] + u[72] - r[72] <= 1
 mccormick3[73]: x[73] + u[73] - r[73] <= 1
 mccormick3[74]: x[74] + u[74] - r[74] <= 1
 mccormick3[75]: x[75] + u[75] - r[75] <= 1
 mccormick3[76]: x[76] + u[76] - r[76] <= 1
 mccormick3[77]: x[77] + u[77] - r[77] <= 1
 mccormick3[78]: x[78] + u[78] - r[78] <= 1
 mccormick3[79]: x[79] + u[79] - r[79] <= 1
Bounds
Binaries
 x[0] x[1] x[2] x[3] x[4] x[5] x[6] x[7] x[8] x[9] x[10] x[11] x[12] x[13]
 x[14] x[15] x[16] x[17] x[18] x[19] x[20] x[21] x[22] x[23] x[24] x[25]
 x[26] x[27] x[28] x[29] x[30] x[31] x[32] x[33] x[34] x[35] x[36] x[37]
 x[38] x[39] x[40] x[41] x[42] x[43] x[44] x[45] x[46] x[47] x[48] x[49]
 x[50] x[51] x[52] x[53] x[54] x[55] x[56] x[57] x[58] x[59] x[60] x[61]
 x[62] x[63] x[64] x[65] x[66] x[67] x[68] x[69] x[70] x[71] x[72] x[73]
 x[74] x[75] x[76] x[77] x[78] x[79] u[0] u[1] u[2] u[3] u[4] u[5] u[6]
 u[7] u[8] u[9] u[10] u[11] u[12] u[13] u[14] u[15] u[16] u[17] u[18] u[19]
 u[20] u[21] u[22] u[23] u[24] u[25] u[26] u[27] u[28] u[29] u[30] u[31]
 u[32] u[33] u[34] u[35] u[36] u[37] u[38] u[39] u[40] u[41] u[42] u[43]
 u[44] u[45] u[46] u[47] u[48] u[49] u[50] u[51] u[52] u[53] u[54] u[55]
 u[56] u[57] u[58] u[59] u[60] u[61] u[62] u[63] u[64] u[65] u[66] u[67]
 u[68] u[69] u[70] u[71] u[72] u[73] u[74] u[75] u[76] u[77] u[78] u[79]
 r[0] r[1] r[2] r[3] r[4] r[5] r[6] r[7] r[8] r[9] r[10] r[11] r[12] r[13]
 r[14] r[15] r[16] r[17] r[18] r[19] r[20] r[21] r[22] r[23] r[24] r[25]
 r[26] r[27] r[28] r[29] r[30] r[31] r[32] r[33] r[34] r[35] r[36] r[37]
 r[38] r[39] r[40] r[41] r[42] r[43] r[44] r[45] r[46] r[47] r[48] r[49]
 r[50] r[51] r[52] r[53] r[54] r[55] r[56] r[57] r[58] r[59] r[60] r[61]
 r[62] r[63] r[64] r[65] r[66] r[67] r[68] r[69] r[70] r[71] r[72] r[73]
 r[74] r[75] r[76] r[77] r[78] r[79]
End
